(set-logic ALL)
(declare-fun var0 () String)
(assert (str.in_re var0 (re.++ (re.+ (re.* (str.to_re "00"))) (re.++ (re.union (re.union (str.to_re "1") (str.to_re "22")) (re.union (str.to_re "33") (str.to_re "4"))) (re.++ (re.union (re.+ (str.to_re "5")) (re.+ (str.to_re "666"))) (re.++ (re.+ (re.+ (str.to_re "777"))) (re.++ (re.union (re.* (str.to_re "888")) (re.* (str.to_re "99"))) (re.++ (re.union (re.* (str.to_re "aaa")) (re.* (str.to_re "bbb"))) (re.++ (re.* (re.+ (str.to_re "c"))) (re.++ (re.union (re.union (str.to_re "dd") (str.to_re "eee")) (re.union (str.to_re "ff") (str.to_re "g"))) (re.++ (re.union (re.+ (str.to_re "hh")) (re.+ (str.to_re "i"))) (re.union (re.union (str.to_re "j") (str.to_re "kk")) (re.union (str.to_re "lll") (str.to_re "m"))))))))))))))
(assert (str.in_re var0 (re.++ (re.union (re.union (str.to_re "000") (str.to_re "11")) (re.union (str.to_re "22") (str.to_re "3"))) (re.++ (re.union (re.union (str.to_re "44") (str.to_re "555")) (re.union (str.to_re "6") (str.to_re "77"))) (re.++ (re.+ (re.* (str.to_re "88"))) (re.++ (re.union (re.+ (str.to_re "999")) (re.+ (str.to_re "aaa"))) (re.++ (re.* (re.+ (str.to_re "b"))) (re.++ (re.union (re.* (str.to_re "c")) (re.* (str.to_re "dd"))) (re.++ (re.+ (re.+ (str.to_re "eee"))) (re.++ (re.* (re.* (str.to_re "ff"))) (re.++ (re.+ (re.* (str.to_re "gg"))) (re.* (re.* (str.to_re "hh"))))))))))))))
(assert (str.in_re var0 (re.++ (re.union (re.union (str.to_re "00") (str.to_re "1")) (re.union (str.to_re "2") (str.to_re "33"))) (re.++ (re.* (re.+ (str.to_re "444"))) (re.++ (re.* (re.* (str.to_re "555"))) (re.++ (re.union (re.union (str.to_re "666") (str.to_re "777")) (re.union (str.to_re "8") (str.to_re "99"))) (re.++ (re.+ (re.* (str.to_re "aa"))) (re.++ (re.union (re.* (str.to_re "bb")) (re.* (str.to_re "cc"))) (re.++ (re.union (re.* (str.to_re "ddd")) (re.* (str.to_re "e"))) (re.++ (re.* (re.union (str.to_re "f") (str.to_re "gg"))) (re.++ (re.+ (re.* (str.to_re "hh"))) (re.* (re.* (str.to_re "ii"))))))))))))))
(assert (str.in_re var0 (re.++ (re.* (re.+ (str.to_re "00"))) (re.++ (re.union (re.union (str.to_re "111") (str.to_re "2")) (re.union (str.to_re "333") (str.to_re "4"))) (re.++ (re.* (re.union (str.to_re "55") (str.to_re "6"))) (re.++ (re.* (re.union (str.to_re "7") (str.to_re "88"))) (re.++ (re.union (re.union (str.to_re "99") (str.to_re "aaa")) (re.union (str.to_re "b") (str.to_re "c"))) (re.++ (re.* (re.+ (str.to_re "d"))) (re.++ (re.* (re.union (str.to_re "ee") (str.to_re "f"))) (re.++ (re.+ (re.union (str.to_re "ggg") (str.to_re "h"))) (re.++ (re.union (re.+ (str.to_re "iii")) (re.+ (str.to_re "jj"))) (re.union (re.* (str.to_re "k")) (re.* (str.to_re "l"))))))))))))))
(check-sat)